(set-logic QF_NRA)
(declare-fun vuscore1dollarsk_2 () Real)
(declare-fun tuscore1dollarsk_0 () Real)
(declare-fun g () Real)
(declare-fun huscore1dollarsk_1 () Real)
(declare-fun V () Real)
(declare-fun c () Real)
(declare-fun v () Real)
(declare-fun t () Real)
(declare-fun h () Real)
(assert (= huscore1dollarsk_1
           (+ (* (/ 1.0 2.0) g tuscore1dollarsk_0 tuscore1dollarsk_0)
              (* tuscore1dollarsk_0 vuscore1dollarsk_2))))
(assert (>= huscore1dollarsk_1 0.0))
(assert (>= tuscore1dollarsk_0 0.0))
(assert (<= vuscore1dollarsk_2 (+ (* (- 1.0) g tuscore1dollarsk_0) V)))
(assert (not (<= g 0.0)))
(assert (<= 0.0 c))
(assert (not (<= 1.0 c)))
(assert (= h (+ (* (/ 1.0 2.0) g t t) (* t v))))
(assert (>= h 0.0))
(assert (>= t 0.0))
(assert (<= v (+ (* (- 1.0) g t) V)))
(assert (not (<= 0.0 huscore1dollarsk_1)))
(check-sat)
(exit)
